100
32
26
30
31
6
4
3
5
18
30
12
13
26
5
2
27
23
29
27
14
24
4
2
22
12
29
26
31
11
10
7
6
17
30
3
14
2
13
16
30
13
24
11
10
21
27
24
23
13
25
29
13
26
32
2
4
6
2
24
18
10
25
9
18
32
19
29
24
29
21
16
10
8
6
17
26
19
26
6
7
19
23
3
29
4
3
9
19
28
2
21
25
24
27
2
28
7
3
29
22
18